sat
(:max-memory                   18.21
 :memory                       18.05
 :nlsat-conflicts              7
 :nlsat-decisions              3
 :nlsat-irrational-assignments 2
 :nlsat-learned-added          7
 :nlsat-propagations           33
 :nlsat-stages                 10
 :num-allocs                   8970
 :rlimit-count                 5155
 :time                         0.00
 :total-time                   0.01)
